11
1 0 6
2 0 4
2 1 5
3 0 3
3 1 4
3 2 5
4 0 6
4 1 6
4 2 5
4 3 3
5 0 7
5 1 7
5 2 6
5 3 7
5 4 6
6 0 6
6 1 4
6 2 7
6 3 7
6 4 3
6 5 7
7 0 3
7 1 6
7 2 7
7 3 4
7 4 7
7 5 5
7 6 6
8 0 6
8 1 7
8 2 3
8 3 6
8 4 6
8 5 3
8 6 7
8 7 3
9 0 5
9 1 5
9 2 4
9 3 6
9 4 5
9 5 7
9 6 7
9 7 6
9 8 6
10 0 7
10 1 4
10 2 5
10 3 6
10 4 4
10 5 4
10 6 7
10 7 4
10 8 3
10 9 3
